cvc5/1700.txt
; cardinality of var1003 is 1
; rep: (as @var1003_0 var1003)
; cardinality of void is 1
; rep: (as @void_0 void)
; cardinality of Iterator is 1
; rep: (as @Iterator_0 Iterator)
; cardinality of ClassObject is 1
; rep: (as @ClassObject_0 ClassObject)
(define-fun arr-String-init () (Array Int String) (store ((as const (Array Int String)) "") 0 "auth"))
(define-fun getLength-Arr-String-1 ((_arg_1 (Array Int String))) Int 1)
(define-fun null-String () String "A")
(define-fun var2552 () String "")